c Reduced graph for p40 generated by Cyril Grelier
p edge 86 497
e 1 2
e 1 4
e 1 7
e 1 16
e 1 18
e 1 19
e 1 24
e 1 28
e 1 44
e 1 49
e 1 50
e 1 67
e 1 79
e 2 4
e 2 7
e 2 24
e 2 29
e 2 37
e 2 44
e 2 70
e 2 72
e 2 84
e 3 7
e 3 8
e 3 17
e 3 20
e 3 33
e 3 34
e 3 35
e 3 48
e 3 57
e 3 58
e 3 62
e 3 63
e 3 68
e 3 73
e 3 77
e 3 79
e 4 5
e 4 7
e 4 15
e 4 24
e 4 44
e 4 54
e 4 59
e 4 77
e 4 78
e 4 83
e 5 15
e 5 23
e 5 45
e 5 46
e 5 54
e 5 59
e 5 77
e 5 78
e 5 83
e 6 25
e 6 27
e 6 30
e 6 41
e 6 58
e 7 24
e 7 34
e 7 35
e 7 44
e 7 62
e 7 63
e 7 68
e 7 73
e 8 9
e 8 14
e 8 17
e 8 20
e 8 25
e 8 33
e 8 48
e 8 51
e 8 52
e 8 57
e 8 58
e 8 60
e 8 61
e 8 77
e 8 79
e 9 14
e 9 18
e 9 25
e 9 32
e 9 39
e 9 51
e 9 52
e 9 56
e 9 60
e 9 61
e 9 70
e 9 85
e 10 12
e 10 13
e 10 21
e 10 31
e 10 32
e 10 35
e 10 57
e 10 76
e 10 82
e 11 31
e 11 33
e 11 53
e 11 65
e 11 66
e 11 69
e 11 75
e 11 78
e 11 86
e 12 13
e 12 14
e 12 22
e 12 32
e 12 49
e 12 57
e 12 62
e 12 74
e 12 81
e 12 82
e 12 84
e 13 15
e 13 16
e 13 30
e 13 32
e 13 42
e 13 47
e 13 57
e 13 73
e 13 82
e 13 86
e 14 22
e 14 25
e 14 49
e 14 51
e 14 52
e 14 60
e 14 61
e 14 62
e 14 74
e 14 81
e 14 84
e 15 16
e 15 30
e 15 42
e 15 47
e 15 54
e 15 59
e 15 73
e 15 77
e 15 78
e 15 83
e 15 86
e 16 18
e 16 19
e 16 28
e 16 30
e 16 42
e 16 47
e 16 49
e 16 50
e 16 67
e 16 73
e 16 79
e 16 86
e 17 20
e 17 33
e 17 48
e 17 55
e 17 57
e 17 58
e 17 77
e 17 79
e 18 19
e 18 28
e 18 32
e 18 39
e 18 49
e 18 50
e 18 56
e 18 67
e 18 70
e 18 79
e 18 85
e 19 26
e 19 28
e 19 37
e 19 49
e 19 50
e 19 52
e 19 67
e 19 68
e 19 71
e 19 79
e 20 33
e 20 38
e 20 44
e 20 45
e 20 48
e 20 56
e 20 57
e 20 58
e 20 77
e 20 79
e 20 81
e 21 31
e 21 35
e 21 36
e 21 76
e 21 80
e 22 23
e 22 39
e 22 42
e 22 43
e 22 49
e 22 62
e 22 71
e 22 74
e 22 81
e 22 84
e 23 39
e 23 42
e 23 43
e 23 45
e 23 46
e 23 71
e 24 26
e 24 27
e 24 44
e 24 48
e 24 64
e 24 74
e 24 75
e 24 76
e 24 85
e 25 27
e 25 41
e 25 51
e 25 52
e 25 60
e 25 61
e 26 27
e 26 37
e 26 48
e 26 52
e 26 64
e 26 68
e 26 71
e 26 74
e 26 75
e 26 76
e 26 85
e 27 41
e 27 48
e 27 64
e 27 74
e 27 75
e 27 76
e 27 85
e 28 49
e 28 50
e 28 59
e 28 61
e 28 64
e 28 66
e 28 67
e 28 79
e 29 37
e 29 38
e 29 53
e 29 55
e 29 60
e 29 67
e 29 70
e 29 72
e 29 82
e 29 83
e 29 84
e 30 42
e 30 47
e 30 58
e 30 73
e 30 86
e 31 33
e 31 35
e 31 53
e 31 65
e 31 66
e 31 76
e 31 86
e 32 39
e 32 56
e 32 57
e 32 70
e 32 82
e 32 85
e 33 48
e 33 53
e 33 57
e 33 58
e 33 65
e 33 66
e 33 77
e 33 79
e 33 86
e 34 35
e 34 36
e 34 43
e 34 50
e 34 51
e 34 62
e 34 63
e 34 65
e 34 68
e 34 73
e 35 62
e 35 63
e 35 68
e 35 73
e 35 76
e 36 43
e 36 50
e 36 51
e 36 65
e 36 80
e 37 52
e 37 68
e 37 70
e 37 71
e 37 72
e 37 84
e 38 44
e 38 45
e 38 53
e 38 55
e 38 56
e 38 60
e 38 67
e 38 81
e 38 82
e 38 83
e 39 42
e 39 43
e 39 56
e 39 70
e 39 71
e 39 85
e 40 41
e 40 46
e 40 47
e 40 54
e 40 63
e 40 69
e 40 72
e 40 80
e 41 46
e 41 47
e 41 69
e 42 43
e 42 47
e 42 71
e 42 73
e 42 86
e 43 50
e 43 51
e 43 65
e 43 71
e 44 45
e 44 56
e 44 81
e 45 46
e 45 56
e 45 81
e 46 47
e 46 69
e 47 69
e 47 73
e 47 86
e 48 57
e 48 58
e 48 64
e 48 74
e 48 75
e 48 76
e 48 77
e 48 79
e 48 85
e 49 50
e 49 62
e 49 67
e 49 74
e 49 79
e 49 81
e 49 84
e 50 51
e 50 65
e 50 67
e 50 79
e 51 52
e 51 60
e 51 61
e 51 65
e 52 60
e 52 61
e 52 68
e 52 71
e 53 55
e 53 60
e 53 65
e 53 66
e 53 67
e 53 82
e 53 83
e 53 86
e 54 59
e 54 63
e 54 72
e 54 77
e 54 78
e 54 80
e 54 83
e 55 60
e 55 67
e 55 82
e 55 83
e 56 70
e 56 81
e 56 85
e 57 58
e 57 77
e 57 79
e 57 82
e 58 77
e 58 79
e 59 61
e 59 64
e 59 66
e 59 77
e 59 78
e 59 83
e 60 61
e 60 67
e 60 82
e 60 83
e 61 64
e 61 66
e 62 63
e 62 68
e 62 73
e 62 74
e 62 81
e 62 84
e 63 68
e 63 72
e 63 73
e 63 80
e 64 66
e 64 74
e 64 75
e 64 76
e 64 85
e 65 66
e 65 86
e 66 86
e 67 79
e 67 82
e 67 83
e 68 71
e 68 73
e 69 75
e 69 78
e 70 72
e 70 84
e 70 85
e 72 80
e 72 84
e 73 86
e 74 75
e 74 76
e 74 81
e 74 84
e 74 85
e 75 76
e 75 78
e 75 85
e 76 85
e 77 78
e 77 79
e 77 83
e 78 83
e 81 84
e 82 83
